# 1 amount of Vehicles
param nv :=
5 ;

# 2 amount of Orders
param no :=
9 ;

# 3 amount of locations
param nl :=
6 ;

# 4 amount of factories
param nf :=
2 ;

# 5 factory sets
set N_f_2[1] :=  4 ;
set N_f_2[2] :=  5 6 ;

# 6 factory stop capacities
param H :=
1 1
2 1 ;

# 7 pickup locations for each order
param L_pd :=
1 2
2 1
3 3
4 2
5 3
6 3
7 2
8 3
9 3 ;

# 8 delivery locations for each order
param L_dd :=
1 6
2 4
3 5
4 4
5 4
6 6
7 4
8 5
9 5 ;

# 9 location sets
set L_2[1] :=  2 ;
set L_2[2] :=  1 4 7 ;
set L_2[3] :=  3 5 6 8 9 ;
set L_2[4] :=  2 4 5 7 ;
set L_2[5] :=  3 8 9 ;
set L_2[6] :=  1 6 ;

# 10 order weights
param Q_kg_2 :=
1 1074.2546709936598
2 1358.6613066980076
3 770.8029149814936
4 8581.835137132743
5 1624.5847196993097
6 1051.8420794712167
7 70.7467686863905
8 12448.654408242795
9 10869.83263432035 ;

# 11 order volumes
param Q_vol_2 :=
1 25.030242059178796
2 6.571591319917275
3 17.19205865413046
4 19.384035576006685
5 13.254457678101556
6 3.232403575698678
7 0.7319628801290342
8 34.96407965396822
9 27.48090158046369 ;

# 12 Locations vehicle can visit
set N_v_2[1] := 1 2 3 4 5 6 ;
set N_v_2[2] := 1 2 3 4 5 6 ;
set N_v_2[3] := 1 2 3 4 5 6 ;
set N_v_2[4] := 1 2 3 4 5 6 ;
set N_v_2[5] := 1 2 3 4 5 6 ;

# 13 Orders vehicles can pick up
set N_vp_2[1] := 1 2 3 4 5 6 9 ;
set N_vp_2[2] := 1 2 3 4 5 6 7 8 9 ;
set N_vp_2[3] := 1 2 3 4 5 6 7 8 9 ;
set N_vp_2[4] := 1 2 3 4 5 6 7 8 9 ;
set N_vp_2[5] := 1 2 3 4 5 6 7 8 9 ;

# 14 vehicle weight capacity
param K_kg :=
1 12000.0
2 18000.0
3 24000.0
4 24000.0
5 24000.0 ;

# 15 vehicle volume capacity
param K_vol :=
1 55.0
2 71.0
3 102.0
4 102.0
5 102.0 ;

# 16 amount of distance intervals
param na :=
1 2
2 2
3 2
4 2
5 2 ;

# 17 amount of weight intervals
param nb :=
1 4
2 2
3 2
4 2
5 2 ;

# 18 Distance intervals
param B_2 :=
1 1 1500.0
1 2 9999999.0
2 1 1500.0
2 2 9999999.0
3 1 1500.0
3 2 9999999.0
4 1 1500.0
4 2 9999999.0
5 1 1500.0
5 2 9999999.0 ;

# 19 Weight intervals
param Z_2 :=
1 1 500.0
1 2 1500.0
1 3 5000.0
1 4 24000.0
2 1 1500.0
2 2 24000.0
2 3 . 
2 4 . 
3 1 1500.0
3 2 24000.0
3 3 . 
3 4 . 
4 1 1500.0
4 2 24000.0
4 3 . 
4 4 . 
5 1 1500.0
5 2 24000.0
5 3 . 
5 4 . ;

# 20 cost per kilometer
param C_km :=
1 1 1 0.07105957031249999
1 1 2 0.11574494469165798
1 1 3 0.19662278014636098
1 1 4 0.3723393221028571
1 2 1 0.047373046875000005
1 2 2 0.07716329646110535
1 2 3 0.13108185343090736
1 2 4 0.2482262147352381
2 1 1 0.13503576880693438
2 1 2 0.43439587578666683
2 1 3 . 
2 1 4 . 
2 2 1 0.08487962610721587
2 2 2 0.2730488362087619
2 2 3 . 
2 2 4 . 
3 1 1 0.1543265929222107
3 1 2 0.4964524294704762
3 1 3 . 
3 1 4 . 
3 2 1 0.09645412057638168
3 2 2 0.3102827684190475
3 2 3 . 
3 2 4 . 
4 1 1 0.1543265929222107
4 1 2 0.4964524294704762
4 1 3 . 
4 1 4 . 
4 2 1 0.09645412057638168
4 2 2 0.3102827684190475
4 2 3 . 
4 2 4 . 
5 1 1 0.1543265929222107
5 1 2 0.4964524294704762
5 1 3 . 
5 1 4 . 
5 2 1 0.09645412057638168
5 2 2 0.3102827684190475
5 2 3 . 
5 2 4 . ;

# 21 cost per kilo
param C_kg :=
1 1 1 0.008544921875000003
1 1 2 0.004564315080642704
1 1 3 0.0022787031026382486
1 1 4 8.114541859150757E-4
1 2 1 0.003417968750000001
1 2 2 0.0018257260322570804
1 2 3 9.114812410552988E-4
1 2 4 3.245816743660299E-4
2 1 1 0.004564315080642704
2 1 2 8.114541859150757E-4
2 1 3 . 
2 1 4 . 
2 2 1 0.0018257260322570804
2 2 2 3.245816743660299E-4
2 2 3 . 
2 2 4 . 
3 1 1 0.004564315080642704
3 1 2 8.114541859150757E-4
3 1 3 . 
3 1 4 . 
3 2 1 0.0018257260322570804
3 2 2 3.245816743660299E-4
3 2 3 . 
3 2 4 . 
4 1 1 0.004564315080642704
4 1 2 8.114541859150757E-4
4 1 3 . 
4 1 4 . 
4 2 1 0.0018257260322570804
4 2 2 3.245816743660299E-4
4 2 3 . 
4 2 4 . 
5 1 1 0.004564315080642704
5 1 2 8.114541859150757E-4
5 1 3 . 
5 1 4 . 
5 2 1 0.0018257260322570804
5 2 2 3.245816743660299E-4
5 2 3 . 
5 2 4 . ;

# 22 fixed costs
param C_fix :=
1 1 1 60.75
1 1 2 136.6875
1 1 3 293.625
1 1 4 764.94375
1 2 1 461.3203125
1 2 2 1037.970703125
1 2 3 2229.71484375
1 2 4 5808.7916015625
2 1 1 159.90504192000003
2 1 2 894.8759938560002
2 1 3 . 
2 1 4 . 
2 2 1 1477.3559627052468
2 2 2 8267.721702398621
2 2 3 . 
2 2 4 . 
3 1 1 195.31660031999994
3 1 2 1093.0495669759996
3 1 3 . 
3 1 4 . 
3 2 1 2317.1726648638028
3 2 2 12967.584802256317
3 2 3 . 
3 2 4 . 
4 1 1 195.31660031999994
4 1 2 1093.0495669759996
4 1 3 . 
4 1 4 . 
4 2 1 2317.1726648638028
4 2 2 12967.584802256317
4 2 3 . 
4 2 4 . 
5 1 1 195.31660031999994
5 1 2 1093.0495669759996
5 1 3 . 
5 1 4 . 
5 2 1 2317.1726648638028
5 2 2 12967.584802256317
5 2 3 . 
5 2 4 . ;

# 23 stopping costs
param C_stop_2 :=
1 1 26.0
1 2 28.0
1 3 29.0
1 4 21.0
1 5 22.0
1 6 28.0
2 1 39.0
2 2 42.0
2 3 43.5
2 4 31.5
2 5 33.0
2 6 42.0
3 1 52.0
3 2 56.0
3 3 58.0
3 4 42.0
3 5 44.0
3 6 56.0
4 1 52.0
4 2 56.0
4 3 58.0
4 4 42.0
4 5 44.0
4 6 56.0
5 1 52.0
5 2 56.0
5 3 58.0
5 4 42.0
5 5 44.0
5 6 56.0 ;

# 24 cost of no transport
param C_2 :=
1 73676.05383446033
2 72609.41391751425
3 69517.67907522943
4 141134.90087326558
5 70226.91820192641
6 58463.97876235361
7 37371.9444929244
8 204068.2150076802
9 180796.8191949512 ;

# 25 timewindow amounts at location
param pi_2 :=
1 3
2 4
3 3
4 4
5 3
6 4 ;

# 26 timewindow lower bounds
param T_l_2 :=
1 1 120.0
1 2 420.0
1 3 1560.0
1 4 . 
2 1 120.0
2 2 1560.0
2 3 3000.0
2 4 4440.0
3 1 120.0
3 2 360.0
3 3 1560.0
3 4 . 
4 1 0.0
4 2 240.0
4 3 1440.0
4 4 1680.0
5 1 0.0
5 2 420.0
5 3 1440.0
5 4 . 
6 1 120.0
6 2 540.0
6 3 1560.0
6 4 1980.0 ;

# 27 timewindow upper bounds
param T_u_2 :=
1 1 360.0
1 2 660.0
1 3 1800.0
1 4 . 
2 1 360.0
2 2 1740.0
2 3 3180.0
2 4 4620.0
3 1 300.0
3 2 600.0
3 3 1740.0
3 4 . 
4 1 180.0
4 2 540.0
4 3 1620.0
4 4 1980.0
5 1 300.0
5 2 720.0
5 3 1740.0
5 4 . 
6 1 420.0
6 2 840.0
6 3 1860.0
6 4 2280.0 ;

# 28 Travel time
param T_2 :=
1 1 1 . 
1 1 2 665.398315464359
1 1 3 513.9016709180877
1 1 4 723.8534921769481
1 1 5 267.4662895811408
1 1 6 284.1322154443667
1 2 1 665.398315464359
1 2 2 . 
1 2 3 745.9005905145334
1 2 4 315.54189876552437
1 2 5 364.0020833260996
1 2 6 335.3877510890821
1 3 1 513.9016709180877
1 3 2 745.9005905145334
1 3 3 . 
1 3 4 350.443555447196
1 3 5 520.2931878547339
1 3 6 497.88590653237935
1 4 1 723.8534921769481
1 4 2 315.54189876552437
1 4 3 350.443555447196
1 4 4 . 
1 4 5 368.37686024158666
1 4 6 391.2372516597944
1 5 1 267.4662895811408
1 5 2 364.0020833260996
1 5 3 520.2931878547339
1 5 4 368.37686024158666
1 5 5 . 
1 5 6 2.1213203435596424
1 6 1 284.1322154443667
1 6 2 335.3877510890821
1 6 3 497.88590653237935
1 6 4 391.2372516597944
1 6 5 2.1213203435596424
1 6 6 . 
2 1 1 . 
2 1 2 682.033273350968
2 1 3 526.7492126910398
2 1 4 741.9498294813717
2 1 5 274.1529468206693
2 1 6 291.2355208304758
2 2 1 682.033273350968
2 2 2 . 
2 2 3 764.5481052773966
2 2 4 323.43044623466244
2 2 5 373.102135409252
2 2 6 343.7724448663091
2 3 1 526.7492126910398
2 3 2 764.5481052773966
2 3 3 . 
2 3 4 359.2046443333759
2 3 5 533.3005175511022
2 3 6 510.3330541956888
2 4 1 741.9498294813717
2 4 2 323.43044623466244
2 4 3 359.2046443333759
2 4 4 . 
2 4 5 377.5862817476263
2 4 6 401.01818295128925
2 5 1 274.1529468206693
2 5 2 373.102135409252
2 5 3 533.3005175511022
2 5 4 377.5862817476263
2 5 5 . 
2 5 6 2.1743533521486333
2 6 1 291.2355208304758
2 6 2 343.7724448663091
2 6 3 510.3330541956888
2 6 4 401.01818295128925
2 6 5 2.1743533521486333
2 6 6 . 
3 1 1 . 
3 1 2 682.033273350968
3 1 3 526.7492126910398
3 1 4 741.9498294813717
3 1 5 274.1529468206693
3 1 6 291.2355208304758
3 2 1 682.033273350968
3 2 2 . 
3 2 3 764.5481052773966
3 2 4 323.43044623466244
3 2 5 373.102135409252
3 2 6 343.7724448663091
3 3 1 526.7492126910398
3 3 2 764.5481052773966
3 3 3 . 
3 3 4 359.2046443333759
3 3 5 533.3005175511022
3 3 6 510.3330541956888
3 4 1 741.9498294813717
3 4 2 323.43044623466244
3 4 3 359.2046443333759
3 4 4 . 
3 4 5 377.5862817476263
3 4 6 401.01818295128925
3 5 1 274.1529468206693
3 5 2 373.102135409252
3 5 3 533.3005175511022
3 5 4 377.5862817476263
3 5 5 . 
3 5 6 2.1743533521486333
3 6 1 291.2355208304758
3 6 2 343.7724448663091
3 6 3 510.3330541956888
3 6 4 401.01818295128925
3 6 5 2.1743533521486333
3 6 6 . 
4 1 1 . 
4 1 2 698.6682312375771
4 1 3 539.596754463992
4 1 4 760.0461667857955
4 1 5 280.83960406019787
4 1 6 298.33882621658506
4 2 1 698.6682312375771
4 2 2 . 
4 2 3 783.1956200402601
4 2 4 331.3189937038006
4 2 5 382.20218749240456
4 2 6 352.1571386435362
4 3 1 539.596754463992
4 3 2 783.1956200402601
4 3 3 . 
4 3 4 367.96573321955583
4 3 5 546.3078472474706
4 3 6 522.7802018589983
4 4 1 760.0461667857955
4 4 2 331.3189937038006
4 4 3 367.96573321955583
4 4 4 . 
4 4 5 386.795703253666
4 4 6 410.7991142427842
4 5 1 280.83960406019787
4 5 2 382.20218749240456
4 5 3 546.3078472474706
4 5 4 386.795703253666
4 5 5 . 
4 5 6 2.2273863607376247
4 6 1 298.33882621658506
4 6 2 352.1571386435362
4 6 3 522.7802018589983
4 6 4 410.7991142427842
4 6 5 2.2273863607376247
4 6 6 . 
5 1 1 . 
5 1 2 698.6682312375771
5 1 3 539.596754463992
5 1 4 760.0461667857955
5 1 5 280.83960406019787
5 1 6 298.33882621658506
5 2 1 698.6682312375771
5 2 2 . 
5 2 3 783.1956200402601
5 2 4 331.3189937038006
5 2 5 382.20218749240456
5 2 6 352.1571386435362
5 3 1 539.596754463992
5 3 2 783.1956200402601
5 3 3 . 
5 3 4 367.96573321955583
5 3 5 546.3078472474706
5 3 6 522.7802018589983
5 4 1 760.0461667857955
5 4 2 331.3189937038006
5 4 3 367.96573321955583
5 4 4 . 
5 4 5 386.795703253666
5 4 6 410.7991142427842
5 5 1 280.83960406019787
5 5 2 382.20218749240456
5 5 3 546.3078472474706
5 5 4 386.795703253666
5 5 5 . 
5 5 6 2.2273863607376247
5 6 1 298.33882621658506
5 6 2 352.1571386435362
5 6 3 522.7802018589983
5 6 4 410.7991142427842
5 6 5 2.2273863607376247
5 6 6 . ;

# 29 Travel distance
param D_2 :=
1 1 . 
1 2 1044.796630928718
1 3 861.8033418361755
1 4 1081.7069843538961
1 5 444.9325791622816
1 6 448.26443088873333
2 1 1044.796630928718
2 2 . 
2 3 1083.8011810290668
2 4 531.0837975310487
2 5 600.0041666521992
2 6 596.7755021781642
3 1 861.8033418361755
3 2 1083.8011810290668
3 3 . 
3 4 690.8871108943921
3 5 820.5863757094679
3 6 823.7718130647588
4 1 1081.7069843538961
4 2 531.0837975310487
4 3 690.8871108943921
4 4 . 
4 5 730.7537204831734
4 6 730.4745033195888
5 1 444.9325791622816
5 2 600.0041666521992
5 3 820.5863757094679
5 4 730.7537204831734
5 5 . 
5 6 4.242640687119285
6 1 448.26443088873333
6 2 596.7755021781642
6 3 823.7718130647588
6 4 730.4745033195888
6 5 4.242640687119285
6 6 . ;

